
<<< setup

Version identifier: 22.1.1.0 | 2022-11-27 | 9160aff4d
Tried aggregator 1 time.
LP Presolve eliminated 1731 rows and 1672 columns.
Reduced LP has 31 rows, 66 columns, and 122 nonzeros.
Presolve time = 0.00 sec. (2.90 ticks)

Iteration log . . .
Iteration:     1   Dual infeasibility =           411.526151
Iteration:    18   Dual objective     =           520.394963
main returns 0

<<< main


<<< done

